NAME          DOVETAIL  
ROWS
 N  obj
 L  c1    
 L  c2
 L  c3
 L  c4
COLUMNS
    MARK0000  'MARKER'                 'INTORG'
    x1        obj                  3   c1                   1
    x1        c2                   3   c3                   1
    x2        obj                  2   c1                   1
    x2        c2                   1   c4                   1
    MARK0001  'MARKER'                 'INTEND'
RHS
    RHS       c1                   9   c2                  18
    RHS       c3                   7   c4                   6
BOUNDS
 LO BND       x1                   0
 LO BND       x2                   0
ENDATA
